Grasp exp. instance_n_25_m_5_id_4.lp tipoLifted 0 szPool 1 nIteration 20 alpha 0.4 
Academic license - for non-commercial use only
Read LP format model from file ../input/instancesGenerated/instance_n_25_m_5_id_4.lp
Reading time = 0.00 seconds
: 5 rows, 25 columns, 125 nonzeros
Optimize a model with 5 rows, 25 columns and 125 nonzeros
Variable types: 0 continuous, 25 integer (25 binary)
Coefficient statistics:
  Matrix range     [1e+00, 1e+01]
  Objective range  [1e+00, 1e+01]
  Bounds range     [1e+00, 1e+00]
  RHS range        [6e+01, 8e+01]
Found heuristic solution: objective 52.0000000

Explored 0 nodes (0 simplex iterations) in 0.00 seconds
Thread count was 1 (of 8 available processors)

Solution count 1: 52 
No other solutions better than 0

Solution limit reached
Best objective 5.200000000000e+01, best bound -, gap -
C_1:	 1.00 x_1  = 1.000000 + 5.00 x_2  = 0.101266 + 8.00 x_3  = 1.000000 + 9.00 x_4  = 0.000000 + 3.00 x_5  = 1.000000 + 7.00 x_6  = 0.000000 + 6.00 x_7  = 1.000000 + 9.00 x_8  = 1.000000 + 4.00 x_9  = 0.000000 + 9.00 x_10  = 0.000000 + 4.00 x_11  = 0.000000 + 7.00 x_12  = 0.000000 + 5.00 x_13  = 0.000000 + 3.00 x_14  = 1.000000 + 1.00 x_15  = 0.000000 + 9.00 x_16  = 1.000000 + 3.00 x_17  = 1.000000 + 3.00 x_18  = 1.000000 + 1.00 x_19  = 1.000000 + 2.00 x_20  = 0.000000 + 6.00 x_21  = 0.075949 + 1.00 x_22  = 1.000000 + 3.00 x_23  = 0.506329 + 4.00 x_24  = 1.000000 + 1.00 x_25  = 0.000000 <= 57.00
C_2:	 3.00 x_1  = 1.000000 + 9.00 x_2  = 0.101266 + 10.00 x_3  = 1.000000 + 8.00 x_4  = 0.000000 + 5.00 x_5  = 1.000000 + 2.00 x_6  = 0.000000 + 1.00 x_7  = 1.000000 + 9.00 x_8  = 1.000000 + 1.00 x_9  = 0.000000 + 9.00 x_10  = 0.000000 + 3.00 x_11  = 0.000000 + 7.00 x_12  = 0.000000 + 6.00 x_13  = 0.000000 + 2.00 x_14  = 1.000000 + 3.00 x_15  = 0.000000 + 4.00 x_16  = 1.000000 + 5.00 x_17  = 1.000000 + 1.00 x_18  = 1.000000 + 1.00 x_19  = 1.000000 + 7.00 x_20  = 0.000000 + 1.00 x_21  = 0.075949 + 9.00 x_22  = 1.000000 + 2.00 x_23  = 0.506329 + 5.00 x_24  = 1.000000 + 1.00 x_25  = 0.000000 <= 57.00
C_3:	 5.00 x_1  = 1.000000 + 2.00 x_2  = 0.101266 + 4.00 x_3  = 1.000000 + 7.00 x_4  = 0.000000 + 5.00 x_5  = 1.000000 + 4.00 x_6  = 0.000000 + 1.00 x_7  = 1.000000 + 3.00 x_8  = 1.000000 + 5.00 x_9  = 0.000000 + 1.00 x_10  = 0.000000 + 8.00 x_11  = 0.000000 + 9.00 x_12  = 0.000000 + 1.00 x_13  = 0.000000 + 6.00 x_14  = 1.000000 + 9.00 x_15  = 0.000000 + 9.00 x_16  = 1.000000 + 9.00 x_17  = 1.000000 + 8.00 x_18  = 1.000000 + 4.00 x_19  = 1.000000 + 10.00 x_20  = 0.000000 + 10.00 x_21  = 0.075949 + 9.00 x_22  = 1.000000 + 6.00 x_23  = 0.506329 + 2.00 x_24  = 1.000000 + 1.00 x_25  = 0.000000 <= 69.00
C_4:	 4.00 x_1  = 1.000000 + 2.00 x_2  = 0.101266 + 10.00 x_3  = 1.000000 + 7.00 x_4  = 0.000000 + 8.00 x_5  = 1.000000 + 2.00 x_6  = 0.000000 + 1.00 x_7  = 1.000000 + 9.00 x_8  = 1.000000 + 7.00 x_9  = 0.000000 + 9.00 x_10  = 0.000000 + 3.00 x_11  = 0.000000 + 1.00 x_12  = 0.000000 + 2.00 x_13  = 0.000000 + 6.00 x_14  = 1.000000 + 7.00 x_15  = 0.000000 + 2.00 x_16  = 1.000000 + 5.00 x_17  = 1.000000 + 5.00 x_18  = 1.000000 + 2.00 x_19  = 1.000000 + 10.00 x_20  = 0.000000 + 6.00 x_21  = 0.075949 + 2.00 x_22  = 1.000000 + 10.00 x_23  = 0.506329 + 3.00 x_24  = 1.000000 + 7.00 x_25  = 0.000000 <= 65.00
C_5:	 1.00 x_1  = 1.000000 + 4.00 x_2  = 0.101266 + 7.00 x_3  = 1.000000 + 6.00 x_4  = 0.000000 + 7.00 x_5  = 1.000000 + 8.00 x_6  = 0.000000 + 10.00 x_7  = 1.000000 + 8.00 x_8  = 1.000000 + 9.00 x_9  = 0.000000 + 6.00 x_10  = 0.000000 + 7.00 x_11  = 0.000000 + 10.00 x_12  = 0.000000 + 9.00 x_13  = 0.000000 + 5.00 x_14  = 1.000000 + 7.00 x_15  = 0.000000 + 9.00 x_16  = 1.000000 + 9.00 x_17  = 1.000000 + 9.00 x_18  = 1.000000 + 10.00 x_19  = 1.000000 + 4.00 x_20  = 0.000000 + 7.00 x_21  = 0.075949 + 1.00 x_22  = 1.000000 + 10.00 x_23  = 0.506329 + 2.00 x_24  = 1.000000 + 4.00 x_25  = 0.000000 <= 84.00
Solution initial: 94.759494 
Number Constraints Used in Cover:5
GRASP Method!
Number cuts repeat: 0
value: 94.759494
Number Constraints Used in Cover:7
GRASP Method!
Number cuts repeat: 0
value: 94.759494
Number Constraints Used in Cover:9
GRASP Method!
Number cuts repeat: 0
value: 94.759494
Number Constraints Used in Cover:11
GRASP Method!
Number cuts repeat: 0
value: 94.759494
Number Constraints Used in Cover:13
GRASP Method!
Number cuts repeat: 0
value: 94.759494
Number Constraints Used in Cover:15
GRASP Method!
Number cuts repeat: 0
value: 94.759494
Number Constraints Used in Cover:17
GRASP Method!
Number cuts repeat: 0
value: 94.759494
Number Constraints Used in Cover:19
GRASP Method!
Number cuts repeat: 0
value: 94.759494
Number Constraints Used in Cover:21
GRASP Method!
Number cuts repeat: 0
value: 94.759494
Number Constraints Used in Cover:23
GRASP Method!
Number cuts repeat: 0
value: 94.759494
Number Constraints Used in Cover:25
GRASP Method!
Number cuts repeat: 0
value: 94.759494
Number Constraints Used in Cover:27
GRASP Method!
Number cuts repeat: 0
value: 94.759494
Number Constraints Used in Cover:28
GRASP Method!
Number cuts repeat: 0
value: 94.759494
Number Constraints Used in Cover:30
GRASP Method!
Number cuts repeat: 0
value: 94.759494
Number Constraints Used in Cover:30
GRASP Method!
Number cuts repeat: 0
value: 94.759494
Number Constraints Used in Cover:31
GRASP Method!
Number cuts repeat: 0
value: 94.759494
Number Constraints Used in Cover:33
GRASP Method!
Number cuts repeat: 0
value: 94.759494
Number Constraints Used in Cover:35
GRASP Method!
Number cuts repeat: 0
value: 94.759494
Number Constraints Used in Cover:36
GRASP Method!
Number cuts repeat: 0
value: 94.759494
Number Constraints Used in Cover:36
GRASP Method!
Number cuts repeat: 0
value: 94.759494
Number Constraints Used in Cover:38
GRASP Method!
Number cuts repeat: 0
value: 94.759494
Number Constraints Used in Cover:40
GRASP Method!
Number cuts repeat: 0
value: 94.759494
Number Constraints Used in Cover:42
GRASP Method!
Number cuts repeat: 0
value: 94.759494
Number Constraints Used in Cover:44
GRASP Method!
Number cuts repeat: 0
value: 94.759494
Number Constraints Used in Cover:46
GRASP Method!
Number cuts repeat: 0
value: 94.759494
Number Constraints Used in Cover:48
GRASP Method!
Number cuts repeat: 0
value: 94.759494
Number Constraints Used in Cover:50
GRASP Method!
Number cuts repeat: 0
value: 94.759494
Number Constraints Used in Cover:52
GRASP Method!
Number cuts repeat: 0
value: 94.759494
Number Constraints Used in Cover:54
GRASP Method!
Number cuts repeat: 0
value: 94.759494
Number Constraints Used in Cover:56
GRASP Method!
Number cuts repeat: 0
value: 94.759494
Number Constraints Used in Cover:58
GRASP Method!
Number cuts repeat: 0
value: 94.759494
Number Constraints Used in Cover:60
GRASP Method!
Number cuts repeat: 0
value: 94.759494
Number Constraints Used in Cover:62
GRASP Method!
Number cuts repeat: 0
value: 94.759494
Number Constraints Used in Cover:63
GRASP Method!
Number cuts repeat: 0
value: 94.759494
Number Constraints Used in Cover:64
GRASP Method!
Number cuts repeat: 0
value: 94.759494
Number Constraints Used in Cover:66
GRASP Method!
Number cuts repeat: 0
value: 94.759494
Number Constraints Used in Cover:68
GRASP Method!
Number cuts repeat: 0
value: 94.759494
Number Constraints Used in Cover:68
GRASP Method!
Number cuts repeat: 0
value: 94.759494
Number Constraints Used in Cover:70
GRASP Method!
Number cuts repeat: 0
value: 94.759494
Number Constraints Used in Cover:72
GRASP Method!
Number cuts repeat: 0
value: 94.759494
Number Constraints Used in Cover:74
GRASP Method!
Number cuts repeat: 0
value: 94.759494
Number Constraints Used in Cover:75
GRASP Method!
Number cuts repeat: 0
value: 94.759494
Number Constraints Used in Cover:77
GRASP Method!
Number cuts repeat: 0
value: 94.759494
Number Constraints Used in Cover:79
GRASP Method!
Number cuts repeat: 0
value: 94.759494
Number Constraints Used in Cover:81
GRASP Method!
Number cuts repeat: 0
value: 94.759494
Number Constraints Used in Cover:82
GRASP Method!
Number cuts repeat: 0
value: 94.759494
Number Constraints Used in Cover:84
GRASP Method!
Number cuts repeat: 0
value: 94.759494
Number Constraints Used in Cover:86
GRASP Method!
Number cuts repeat: 0
value: 94.759494
Number Constraints Used in Cover:87
GRASP Method!
Number cuts repeat: 0
value: 94.759494
Number Constraints Used in Cover:88
GRASP Method!
Number cuts repeat: 0
value: 94.759494
Number Constraints Used in Cover:90
GRASP Method!
Number cuts repeat: 0
value: 94.759494
Number Constraints Used in Cover:92
GRASP Method!
Number cuts repeat: 0
value: 94.759494
Number Constraints Used in Cover:94
GRASP Method!
Number cuts repeat: 0
value: 94.759494
Number Constraints Used in Cover:96
GRASP Method!
Number cuts repeat: 0
value: 94.759494
Number Constraints Used in Cover:97
GRASP Method!
Number cuts repeat: 0
value: 94.759494
Number Constraints Used in Cover:99
GRASP Method!
Number cuts repeat: 0
value: 94.759494
Number Constraints Used in Cover:101
GRASP Method!
Number cuts repeat: 0
value: 94.759494
Number Constraints Used in Cover:103
GRASP Method!
Number cuts repeat: 0
value: 94.759494
Number Constraints Used in Cover:105
GRASP Method!
Number cuts repeat: 0
value: 94.759494
Number Constraints Used in Cover:107
GRASP Method!
Number cuts repeat: 0
value: 94.759494
Number Constraints Used in Cover:108
GRASP Method!
Number cuts repeat: 0
value: 94.759494
Number Constraints Used in Cover:109
GRASP Method!
Number cuts repeat: 0
value: 94.759494
Number Constraints Used in Cover:109
GRASP Method!
Number cuts repeat: 0
value: 94.759494
Number Constraints Used in Cover:111
GRASP Method!
Number cuts repeat: 0
value: 94.759494
Number Constraints Used in Cover:112
GRASP Method!
Number cuts repeat: 0
value: 94.759494
Number Constraints Used in Cover:114
GRASP Method!
Number cuts repeat: 0
value: 94.759494
Number Constraints Used in Cover:116
GRASP Method!
Number cuts repeat: 0
value: 94.759494
Number Constraints Used in Cover:118
GRASP Method!
Number cuts repeat: 0
value: 94.759494
Number Constraints Used in Cover:118
GRASP Method!
Number cuts repeat: 0
value: 94.759494
Number Constraints Used in Cover:120
GRASP Method!
Number cuts repeat: 0
value: 94.759494
Number Constraints Used in Cover:122
GRASP Method!
Number cuts repeat: 0
value: 94.759494
Number Constraints Used in Cover:124
GRASP Method!
Number cuts repeat: 0
value: 94.759494
Number Constraints Used in Cover:126
GRASP Method!
Number cuts repeat: 0
value: 94.759494
Number Constraints Used in Cover:126
GRASP Method!
Number cuts repeat: 0
value: 94.759494
Number Constraints Used in Cover:126
GRASP Method!
Number cuts repeat: 0
value: 94.759494
Number Constraints Used in Cover:127
GRASP Method!
Number cuts repeat: 0
value: 94.759494
Number Constraints Used in Cover:128
GRASP Method!
Number cuts repeat: 0
value: 94.759494
Number Constraints Used in Cover:130
GRASP Method!
Number cuts repeat: 0
value: 94.759494
Number Constraints Used in Cover:130
GRASP Method!
Number cuts repeat: 0
value: 94.759494
Number Constraints Used in Cover:131
GRASP Method!
Number cuts repeat: 0
value: 94.759494
Number Constraints Used in Cover:133
GRASP Method!
Number cuts repeat: 0
value: 94.759494
Number Constraints Used in Cover:134
GRASP Method!
Number cuts repeat: 0
value: 94.759494
Number Constraints Used in Cover:136
GRASP Method!
Number cuts repeat: 0
value: 94.759494
Number Constraints Used in Cover:137
GRASP Method!
Number cuts repeat: 0
value: 94.759494
Number Constraints Used in Cover:138
GRASP Method!
Number cuts repeat: 0
value: 94.759494
Number Constraints Used in Cover:139
GRASP Method!
Number cuts repeat: 0
value: 94.759494
Number Constraints Used in Cover:141
GRASP Method!
Number cuts repeat: 0
value: 94.759494
Number Constraints Used in Cover:142
GRASP Method!
Number cuts repeat: 0
value: 94.759494
Number Constraints Used in Cover:144
GRASP Method!
Number cuts repeat: 0
value: 94.759494
Number Constraints Used in Cover:145
GRASP Method!
Number cuts repeat: 0
value: 94.759494
Number Constraints Used in Cover:146
GRASP Method!
Number cuts repeat: 0
value: 94.759494
Number Constraints Used in Cover:147
GRASP Method!
Number cuts repeat: 0
value: 94.759494
Number Constraints Used in Cover:148
GRASP Method!
Number cuts repeat: 0
value: 94.759494
Number Constraints Used in Cover:149
GRASP Method!
Number cuts repeat: 0
value: 94.759494
Number Constraints Used in Cover:150
GRASP Method!
Number cuts repeat: 0
value: 94.759494
Number Constraints Used in Cover:152
GRASP Method!
Number cuts repeat: 0
value: 94.759494
Number Constraints Used in Cover:153
GRASP Method!
Number cuts repeat: 0
value: 94.759494
Number Constraints Used in Cover:155
GRASP Method!
Number cuts repeat: 0
value: 94.759494
Number Constraints Used in Cover:157
GRASP Method!
Number cuts repeat: 0
value: 94.759494
Number Constraints Used in Cover:157
GRASP Method!
Number cuts repeat: 0
value: 94.759494
Number Constraints Used in Cover:159
GRASP Method!
Number cuts repeat: 0
value: 94.759494
Number Constraints Used in Cover:161
GRASP Method!
Number cuts repeat: 0
value: 94.759494
Number Constraints Used in Cover:163
GRASP Method!
Number cuts repeat: 0
value: 94.759494
Number Constraints Used in Cover:164
GRASP Method!
Number cuts repeat: 0
value: 94.759494
Number Constraints Used in Cover:166
GRASP Method!
Number cuts repeat: 0
value: 94.759494
Number Constraints Used in Cover:167
GRASP Method!
Number cuts repeat: 0
value: 94.759494
Number Constraints Used in Cover:167
GRASP Method!
Number cuts repeat: 0
value: 94.759494
Number Constraints Used in Cover:168
GRASP Method!
Number cuts repeat: 0
value: 94.759494
Number Constraints Used in Cover:170
GRASP Method!
Number cuts repeat: 0
value: 94.759494
Number Constraints Used in Cover:171
GRASP Method!
Number cuts repeat: 0
value: 94.759494
Number Constraints Used in Cover:173
GRASP Method!
Number cuts repeat: 0
value: 94.759494
Number Constraints Used in Cover:175
GRASP Method!
Number cuts repeat: 0
value: 94.759494
Number Constraints Used in Cover:175
GRASP Method!
Number cuts repeat: 0
value: 94.759494
Number Constraints Used in Cover:177
GRASP Method!
Number cuts repeat: 0
value: 94.759494
Number Constraints Used in Cover:178
GRASP Method!
Number cuts repeat: 0
value: 94.759494
Number Constraints Used in Cover:179
GRASP Method!
Number cuts repeat: 0
value: 94.759494
Number Constraints Used in Cover:180
GRASP Method!
Number cuts repeat: 0
value: 94.759494
Number Constraints Used in Cover:180
GRASP Method!
Number cuts repeat: 0
value: 94.759494
Number Constraints Used in Cover:181
GRASP Method!
Number cuts repeat: 0
value: 94.759494
Number Constraints Used in Cover:182
GRASP Method!
Number cuts repeat: 0
value: 94.759494
Number Constraints Used in Cover:184
GRASP Method!
Number cuts repeat: 0
value: 94.759494
Number Constraints Used in Cover:184
GRASP Method!
Number cuts repeat: 0
value: 94.759494
Number Constraints Used in Cover:185
GRASP Method!
Number cuts repeat: 0
value: 94.759494
Number Constraints Used in Cover:187
GRASP Method!
Number cuts repeat: 0
value: 94.759494
Number Constraints Used in Cover:188
GRASP Method!
Number cuts repeat: 0
value: 94.759494
Number Constraints Used in Cover:189
GRASP Method!
Number cuts repeat: 0
value: 94.759494
Number Constraints Used in Cover:191
GRASP Method!
Number cuts repeat: 0
value: 94.759494
Number Constraints Used in Cover:192
GRASP Method!
Number cuts repeat: 0
value: 94.759494
Number Constraints Used in Cover:194
GRASP Method!
Number cuts repeat: 0
value: 94.759494
Number Constraints Used in Cover:195
GRASP Method!
Number cuts repeat: 0
value: 94.759494
Number Constraints Used in Cover:196
GRASP Method!
Number cuts repeat: 0
value: 94.759494
Number Constraints Used in Cover:197
GRASP Method!
Number cuts repeat: 0
value: 94.759494
Number Constraints Used in Cover:199
GRASP Method!
Number cuts repeat: 0
value: 94.759494
Number Constraints Used in Cover:201
GRASP Method!
Number cuts repeat: 0
value: 94.759494
Number Constraints Used in Cover:202
GRASP Method!
Number cuts repeat: 0
value: 94.759494
Number Constraints Used in Cover:203
GRASP Method!
Number cuts repeat: 0
value: 94.759494
Number Constraints Used in Cover:204
GRASP Method!
Number cuts repeat: 0
value: 94.759494
Number Constraints Used in Cover:204
GRASP Method!
Number cuts repeat: 0
value: 94.759494
Number Constraints Used in Cover:205
GRASP Method!
Number cuts repeat: 0
value: 94.759494
Number Constraints Used in Cover:207
GRASP Method!
Number cuts repeat: 0
value: 94.759494
Number Constraints Used in Cover:208
GRASP Method!
Number cuts repeat: 0
value: 94.759494
Number Constraints Used in Cover:210
GRASP Method!
Number cuts repeat: 0
value: 94.759494
Number Constraints Used in Cover:212
GRASP Method!
Number cuts repeat: 0
value: 94.759494
Number Constraints Used in Cover:213
GRASP Method!
Number cuts repeat: 0
value: 94.759494
Number Constraints Used in Cover:213
GRASP Method!
Number cuts repeat: 0
value: 94.759494
Number Constraints Used in Cover:214
GRASP Method!
Number cuts repeat: 0
value: 94.759494
Number Constraints Used in Cover:215
GRASP Method!
Number cuts repeat: 0
value: 94.759494
Number Constraints Used in Cover:216
GRASP Method!
Number cuts repeat: 0
value: 94.759494
Number Constraints Used in Cover:217
GRASP Method!
Number cuts repeat: 0
value: 94.759494
Number Constraints Used in Cover:218
GRASP Method!
Number cuts repeat: 0
value: 94.759494
Number Constraints Used in Cover:220
GRASP Method!
Number cuts repeat: 0
value: 94.759494
Number Constraints Used in Cover:220
GRASP Method!
Number cuts repeat: 0
value: 94.759494
Number Constraints Used in Cover:221
GRASP Method!
Number cuts repeat: 0
value: 94.759494
Number Constraints Used in Cover:222
GRASP Method!
Number cuts repeat: 0
value: 94.759494
Number Constraints Used in Cover:223
GRASP Method!
Number cuts repeat: 0
value: 94.759494
Number Constraints Used in Cover:223
GRASP Method!
Number cuts repeat: 0
value: 94.636943
Number Constraints Used in Cover:225
GRASP Method!
Number cuts repeat: 0
value: 94.636943
Number Constraints Used in Cover:225
GRASP Method!
Number cuts repeat: 0
value: 94.636943
Number Constraints Used in Cover:227
GRASP Method!
Number cuts repeat: 0
value: 94.636943
Number Constraints Used in Cover:228
GRASP Method!
Number cuts repeat: 0
value: 94.636943
Number Constraints Used in Cover:230
GRASP Method!
Number cuts repeat: 0
value: 94.636943
Number Constraints Used in Cover:231
GRASP Method!
Number cuts repeat: 0
value: 94.636943
Number Constraints Used in Cover:233
GRASP Method!
Number cuts repeat: 0
value: 94.636943
Number Constraints Used in Cover:235
GRASP Method!
Number cuts repeat: 0
value: 94.636943
Number Constraints Used in Cover:236
GRASP Method!
Number cuts repeat: 0
value: 94.636943
Number Constraints Used in Cover:236
GRASP Method!
Number cuts repeat: 0
value: 94.636943
Number Constraints Used in Cover:237
GRASP Method!
Number cuts repeat: 0
value: 94.636943
Number Constraints Used in Cover:238
GRASP Method!
Number cuts repeat: 0
value: 94.636943
Number Constraints Used in Cover:239
GRASP Method!
Number cuts repeat: 0
value: 94.636943
Number Constraints Used in Cover:241
GRASP Method!
Number cuts repeat: 0
value: 94.636943
Number Constraints Used in Cover:242
GRASP Method!
Number cuts repeat: 0
value: 94.636943
Number Constraints Used in Cover:244
GRASP Method!
Number cuts repeat: 0
value: 94.636943
Number Constraints Used in Cover:246
GRASP Method!
Number cuts repeat: 0
value: 94.636943
Number Constraints Used in Cover:247
GRASP Method!
Number cuts repeat: 0
value: 94.636943
Number Constraints Used in Cover:249
GRASP Method!
Number cuts repeat: 0
value: 94.636943
Number Constraints Used in Cover:249
GRASP Method!
Number cuts repeat: 0
value: 94.636943
Number Constraints Used in Cover:251
GRASP Method!
Number cuts repeat: 0
value: 94.636943
Number Constraints Used in Cover:253
GRASP Method!
Number cuts repeat: 0
value: 94.636943
Number Constraints Used in Cover:254
GRASP Method!
Number cuts repeat: 0
value: 94.636943
Number Constraints Used in Cover:256
GRASP Method!
Number cuts repeat: 0
value: 94.636943
Number Constraints Used in Cover:256
GRASP Method!
Number cuts repeat: 0
value: 94.636943
Number Constraints Used in Cover:257
GRASP Method!
Number cuts repeat: 0
value: 94.636943
Number Constraints Used in Cover:259
GRASP Method!
Number cuts repeat: 0
value: 94.636943
Number Constraints Used in Cover:260
GRASP Method!
Number cuts repeat: 0
value: 94.636943
Number Constraints Used in Cover:262
GRASP Method!
Number cuts repeat: 0
value: 94.636943
Number Constraints Used in Cover:264
GRASP Method!
Number cuts repeat: 0
value: 94.636943
Number Constraints Used in Cover:265
GRASP Method!
Number cuts repeat: 0
value: 94.636943
Number Constraints Used in Cover:267
GRASP Method!
Number cuts repeat: 0
value: 94.636943
Number Constraints Used in Cover:269
GRASP Method!
Number cuts repeat: 0
value: 94.636943
Number Constraints Used in Cover:270
GRASP Method!
Number cuts repeat: 0
value: 94.636943
Number Constraints Used in Cover:271
GRASP Method!
Number cuts repeat: 0
value: 94.636943
Number Constraints Used in Cover:272
GRASP Method!
Number cuts repeat: 0
value: 94.636943
Number Constraints Used in Cover:274
GRASP Method!
Number cuts repeat: 0
value: 94.636943
Number Constraints Used in Cover:275
GRASP Method!
Number cuts repeat: 0
value: 94.636943
Number Constraints Used in Cover:277
GRASP Method!
Number cuts repeat: 0
value: 94.636943
Number Constraints Used in Cover:278
GRASP Method!
Number cuts repeat: 0
value: 94.636943
Number Constraints Used in Cover:278
GRASP Method!
Number cuts repeat: 0
value: 94.636943
Number Constraints Used in Cover:279
GRASP Method!
Number cuts repeat: 0
value: 94.636943
Number Constraints Used in Cover:281
GRASP Method!
Number cuts repeat: 0
value: 94.636943
Number Constraints Used in Cover:282
GRASP Method!
Number cuts repeat: 0
value: 94.636943
Number Constraints Used in Cover:283
GRASP Method!
Number cuts repeat: 0
value: 94.636943
Number Constraints Used in Cover:283
GRASP Method!
Number cuts repeat: 0
value: 94.636943
Number Constraints Used in Cover:284
GRASP Method!
Number cuts repeat: 0
value: 94.636943
Number Constraints Used in Cover:286
GRASP Method!
Number cuts repeat: 0
value: 94.636943
Number Constraints Used in Cover:288
GRASP Method!
Number cuts repeat: 0
value: 94.636943
Number Constraints Used in Cover:290
GRASP Method!
Number cuts repeat: 0
value: 94.636943
Number Constraints Used in Cover:292
GRASP Method!
Number cuts repeat: 0
value: 94.636943
Number Constraints Used in Cover:293
GRASP Method!
Number cuts repeat: 0
value: 94.636943
Number Constraints Used in Cover:294
GRASP Method!
Number cuts repeat: 0
value: 94.636943
Number Constraints Used in Cover:295
GRASP Method!
Number cuts repeat: 0
value: 94.636943
Number Constraints Used in Cover:295
GRASP Method!
Number cuts repeat: 0
value: 94.636943
Number Constraints Used in Cover:295
GRASP Method!
Number cuts repeat: 0
value: 94.636943
Number Constraints Used in Cover:296
GRASP Method!
Number cuts repeat: 0
value: 94.636943
Number Constraints Used in Cover:296
GRASP Method!
Number cuts repeat: 0
value: 94.636943
Number Constraints Used in Cover:298
GRASP Method!
Number cuts repeat: 0
value: 94.636943
Number Constraints Used in Cover:298
GRASP Method!
Number cuts repeat: 0
value: 94.636943
Number Constraints Used in Cover:299
GRASP Method!
Number cuts repeat: 0
value: 94.636943
Number Constraints Used in Cover:300
GRASP Method!
Number cuts repeat: 0
value: 94.636943
Number Constraints Used in Cover:300
GRASP Method!
Number cuts repeat: 0
value: 94.636943
Number Constraints Used in Cover:301
GRASP Method!
Number cuts repeat: 0
value: 94.636943
Number Constraints Used in Cover:301
GRASP Method!
Number cuts repeat: 0
value: 94.636943
Number Constraints Used in Cover:301
GRASP Method!
Number cuts repeat: 0
value: 94.636943
Number Constraints Used in Cover:301
GRASP Method!
Number cuts repeat: 0
value: 94.636943
Number Constraints Used in Cover:301
GRASP Method!
Number cuts repeat: 0
value: 94.636943
Number Constraints Used in Cover:302
GRASP Method!
Number cuts repeat: 0
value: 94.636943
Number Constraints Used in Cover:304
GRASP Method!
Number cuts repeat: 0
value: 94.636943
Number Constraints Used in Cover:305
GRASP Method!
Number cuts repeat: 0
value: 94.636943
Number Constraints Used in Cover:306
GRASP Method!
Number cuts repeat: 0
value: 94.636943
Number Constraints Used in Cover:306
GRASP Method!
Number cuts repeat: 0
value: 94.636943
Number Constraints Used in Cover:307
GRASP Method!
Number cuts repeat: 0
value: 94.636943
Number Constraints Used in Cover:308
GRASP Method!
Number cuts repeat: 0
value: 94.636943
Number Constraints Used in Cover:308
GRASP Method!
Number cuts repeat: 0
value: 94.636943
Number Constraints Used in Cover:309
GRASP Method!
Number cuts repeat: 0
value: 94.636943
Number Constraints Used in Cover:309
GRASP Method!
Number cuts repeat: 0
value: 94.636943
Number Constraints Used in Cover:309
GRASP Method!
Number cuts repeat: 0
value: 94.636943
Number Constraints Used in Cover:309
GRASP Method!
Number cuts repeat: 0
value: 94.636943
Number Constraints Used in Cover:310
GRASP Method!
Number cuts repeat: 0
value: 94.636943
Number Constraints Used in Cover:310
GRASP Method!
Number cuts repeat: 0
value: 94.636943
Number Constraints Used in Cover:311
GRASP Method!
Number cuts repeat: 0
value: 94.636943
Number Constraints Used in Cover:311
GRASP Method!
Number cuts repeat: 0
value: 94.636943
Number Constraints Used in Cover:312
GRASP Method!
Number cuts repeat: 0
value: 94.636943
Number Constraints Used in Cover:312
GRASP Method!
Number cuts repeat: 0
value: 94.636943
Number Constraints Used in Cover:313
GRASP Method!
Number cuts repeat: 0
value: 94.636943
Number Constraints Used in Cover:313
GRASP Method!
Number cuts repeat: 0
value: 94.636943
Number Constraints Used in Cover:313
GRASP Method!
Number cuts repeat: 0
value: 94.636943
Number Constraints Used in Cover:313
GRASP Method!
Number cuts repeat: 0
value: 94.636943
Number Constraints Used in Cover:315
GRASP Method!
Number cuts repeat: 0
value: 94.636943
Number Constraints Used in Cover:317
GRASP Method!
Number cuts repeat: 0
value: 94.636943
Number Constraints Used in Cover:317
GRASP Method!
Number cuts repeat: 0
value: 94.636943
Number Constraints Used in Cover:317
GRASP Method!
Number cuts repeat: 0
value: 94.636943
Number Constraints Used in Cover:317
GRASP Method!
Number cuts repeat: 0
value: 94.636943
Number Constraints Used in Cover:317
GRASP Method!
Number cuts repeat: 0
value: 94.636943
Number Constraints Used in Cover:317
GRASP Method!
Number cuts repeat: 0
value: 94.636943
Number Constraints Used in Cover:317
GRASP Method!
Number cuts repeat: 0
value: 94.636943
Number Constraints Used in Cover:318
GRASP Method!
Number cuts repeat: 0
value: 94.636943
Number Constraints Used in Cover:320
GRASP Method!
Number cuts repeat: 0
value: 94.636943
Number Constraints Used in Cover:321
GRASP Method!
Number cuts repeat: 0
value: 94.636943
Number Constraints Used in Cover:321
GRASP Method!
Number cuts repeat: 0
value: 94.636943
Number Constraints Used in Cover:321
GRASP Method!
Number cuts repeat: 0
value: 94.636943
Number Constraints Used in Cover:321
GRASP Method!
Number cuts repeat: 0
value: 94.636943
Number Constraints Used in Cover:321
GRASP Method!
Number cuts repeat: 0
value: 94.636943
Number Constraints Used in Cover:322
GRASP Method!
Number cuts repeat: 0
value: 94.636943
Number Constraints Used in Cover:322
GRASP Method!
Number cuts repeat: 0
value: 94.636943
Number Constraints Used in Cover:324
GRASP Method!
Number cuts repeat: 0
value: 94.636943
Number Constraints Used in Cover:325
GRASP Method!
Number cuts repeat: 0
value: 94.636943
Number Constraints Used in Cover:326
GRASP Method!
Number cuts repeat: 0
value: 94.636943
Number Constraints Used in Cover:328
GRASP Method!
Number cuts repeat: 0
value: 94.636943
Number Constraints Used in Cover:328
GRASP Method!
Number cuts repeat: 0
value: 94.636943
Number Constraints Used in Cover:329
GRASP Method!
Number cuts repeat: 0
value: 94.636943
Number Constraints Used in Cover:330
GRASP Method!
Number cuts repeat: 0
value: 94.636943
Number Constraints Used in Cover:330
GRASP Method!
Number cuts repeat: 0
value: 94.636943
Number Constraints Used in Cover:330
GRASP Method!
Number cuts repeat: 0
value: 94.636943
Number Constraints Used in Cover:330
GRASP Method!
Number cuts repeat: 0
value: 94.636943
Number Constraints Used in Cover:331
GRASP Method!
Number cuts repeat: 0
value: 94.636943
Number Constraints Used in Cover:331
GRASP Method!
Number cuts repeat: 0
value: 94.636943
Number Constraints Used in Cover:331
GRASP Method!
Number cuts repeat: 0
value: 94.636943
Number Constraints Used in Cover:333
GRASP Method!
Number cuts repeat: 0
value: 94.636943
Number Constraints Used in Cover:334
GRASP Method!
Number cuts repeat: 0
value: 94.636943
Number Constraints Used in Cover:335
GRASP Method!
Number cuts repeat: 0
value: 94.636943
Number Constraints Used in Cover:336
GRASP Method!
Number cuts repeat: 0
value: 94.636943
Number Constraints Used in Cover:337
GRASP Method!
Number cuts repeat: 0
value: 94.636943
Number Constraints Used in Cover:337
GRASP Method!
Number cuts repeat: 0
value: 94.636943
Number Constraints Used in Cover:337
GRASP Method!
Number cuts repeat: 0
value: 94.636943
Number Cuts Final: 332
